500
500 500
1 350 749
2 349 961
3 349 366
4 348 96
5 348 216
6 347 606
7 347 121
8 347 305
9 345 750
10 344 585
11 343 30
12 343 967
13 343 778
14 342 473
15 341 614
16 339 837
17 338 108
18 338 581
19 338 105
20 337 105
21 337 159
22 337 271
23 336 476
24 335 219
25 335 309
26 333 168
27 332 144
28 332 615
29 331 753
30 331 348
31 331 376
32 330 759
33 330 311
34 330 619
35 329 664
36 329 596
37 329 349
38 328 366
39 327 956
40 327 968
41 327 986
42 326 266
43 325 935
44 325 507
45 323 45
46 323 822
47 323 769
48 323 448
49 322 686
50 322 881
51 322 762
52 321 223
53 321 296
54 320 626
55 320 349
56 320 388
57 320 844
58 319 118
59 319 356
60 318 975
61 318 722
62 317 643
63 317 945
64 316 686
65 316 58
66 316 121
67 316 43
68 316 205
69 316 935
70 315 877
71 315 564
72 315 634
73 314 38
74 314 657
75 314 877
76 314 810
77 313 865
78 312 274
79 312 176
80 311 284
81 309 819
82 309 275
83 309 858
84 309 973
85 309 763
86 309 47
87 309 476
88 306 910
89 305 969
90 305 809
91 305 728
92 304 612
93 304 104
94 303 293
95 302 167
96 302 274
97 300 14
98 300 959
99 300 93
100 300 901
101 300 609
102 300 925
103 299 197
104 297 846
105 296 680
106 295 968
107 295 834
108 295 201
109 294 631
110 294 259
111 293 508
112 293 223
113 292 646
114 292 86
115 292 900
116 292 933
117 291 704
118 291 831
119 291 791
120 290 914
121 290 706
122 290 591
123 290 503
124 289 744
125 289 62
126 289 0
127 289 333
128 286 857
129 285 699
130 284 197
131 283 499
132 283 553
133 283 91
134 282 920
135 281 85
136 279 540
137 278 404
138 277 159
139 277 233
140 277 622
141 275 548
142 275 789
143 274 73
144 274 405
145 274 449
146 273 184
147 273 370
148 271 44
149 271 231
150 270 777
151 270 472
152 267 590
153 266 323
154 266 732
155 266 254
156 265 506
157 265 724
158 265 263
159 265 787
160 264 680
161 264 626
162 264 71
163 264 713
164 263 326
165 262 720
166 260 755
167 259 173
168 258 924
169 257 954
170 256 117
171 256 872
172 256 936
173 256 231
174 256 980
175 255 248
176 255 504
177 255 272
178 252 587
179 252 175
180 252 847
181 251 440
182 250 52
183 250 134
184 248 360
185 248 189
186 245 766
187 245 725
188 245 564
189 245 137
190 244 94
191 244 610
192 244 871
193 243 209
194 243 134
195 243 304
196 243 790
197 242 836
198 242 15
199 242 427
200 242 486
201 241 294
202 240 118
203 240 944
204 238 218
205 238 247
206 237 78
207 237 244
208 236 198
209 236 44
210 234 636
211 234 268
212 233 308
213 232 272
214 231 896
215 229 592
216 229 964
217 228 123
218 227 455
219 226 965
220 226 625
221 226 737
222 225 230
223 225 427
224 224 333
225 224 572
226 222 423
227 221 117
228 220 94
229 219 117
230 219 280
231 219 820
232 218 778
233 218 64
234 218 28
235 217 653
236 217 194
237 216 75
238 216 86
239 216 584
240 216 945
241 215 950
242 215 121
243 214 736
244 213 542
245 213 18
246 213 398
247 211 834
248 209 515
249 208 237
250 207 645
251 207 727
252 206 373
253 206 397
254 205 670
255 205 839
256 204 299
257 203 748
258 202 468
259 202 91
260 202 308
261 200 154
262 200 722
263 200 193
264 199 193
265 199 501
266 198 898
267 197 500
268 197 571
269 197 30
270 197 597
271 196 153
272 196 574
273 195 911
274 195 886
275 194 428
276 191 145
277 191 390
278 191 718
279 190 704
280 190 171
281 190 933
282 189 710
283 188 616
284 187 70
285 186 225
286 186 688
287 186 724
288 186 35
289 185 745
290 185 376
291 184 100
292 182 542
293 182 844
294 182 143
295 181 64
296 181 207
297 181 786
298 181 169
299 180 682
300 180 449
301 180 453
302 180 699
303 178 520
304 177 763
305 176 363
306 176 737
307 175 823
308 175 378
309 175 381
310 174 865
311 174 190
312 174 644
313 173 200
314 172 197
315 171 912
316 170 555
317 169 434
318 169 729
319 169 934
320 168 696
321 167 734
322 167 342
323 166 889
324 166 864
325 163 12
326 162 693
327 162 10
328 160 323
329 159 528
330 159 756
331 159 636
332 158 952
333 158 216
334 157 599
335 156 10
336 156 816
337 155 537
338 154 884
339 151 104
340 150 449
341 150 87
342 150 14
343 149 547
344 149 709
345 148 919
346 145 355
347 145 742
348 144 99
349 143 654
350 143 536
351 142 22
352 141 546
353 141 780
354 140 651
355 140 378
356 139 448
357 139 190
358 139 288
359 138 811
360 138 95
361 137 226
362 137 144
363 137 462
364 136 536
365 136 90
366 136 11
367 135 745
368 134 559
369 133 16
370 133 891
371 132 987
372 132 231
373 132 632
374 130 185
375 129 712
376 129 279
377 129 331
378 128 344
379 127 227
380 126 640
381 126 754
382 125 428
383 124 832
384 121 180
385 120 612
386 118 677
387 118 44
388 116 298
389 116 318
390 114 301
391 114 739
392 113 598
393 112 644
394 112 587
395 112 24
396 111 871
397 111 941
398 110 286
399 109 783
400 109 991
401 107 60
402 107 211
403 107 966
404 106 777
405 106 424
406 106 879
407 105 488
408 104 448
409 104 492
410 101 910
411 101 757
412 101 960
413 101 314
414 100 623
415 99 786
416 99 547
417 98 727
418 98 548
419 97 715
420 96 869
421 96 81
422 94 754
423 93 242
424 91 858
425 90 179
426 89 399
427 89 846
428 88 847
429 88 135
430 88 697
431 87 766
432 87 172
433 86 572
434 85 750
435 85 972
436 83 983
437 83 861
438 83 981
439 82 438
440 82 74
441 82 269
442 81 528
443 81 903
444 80 449
445 80 925
446 80 172
447 79 21
448 79 25
449 78 482
450 76 415
451 76 892
452 76 100
453 75 221
454 75 23
455 74 841
456 74 311
457 74 258
458 74 408
459 73 353
460 72 383
461 72 858
462 72 841
463 72 739
464 72 898
465 72 623
466 72 518
467 71 802
468 70 438
469 70 249
470 69 432
471 68 587
472 68 881
473 67 314
474 67 26
475 67 937
476 67 614
477 67 759
478 66 32
479 65 671
480 65 17
481 64 531
482 64 685
483 63 539
484 62 229
485 62 201
486 60 513
487 60 835
488 60 616
489 59 651
490 57 952
491 57 278
492 57 127
493 56 424
494 55 983
495 55 0
496 55 98
497 52 563
498 52 931
499 50 63
500 50 789
